import os
import sys
import numpy as np
from TCCSD import TCCSD

molecule mol {
    unit bohr
    0 1
    O
    H 1 1.809
    H 1 1.809 2 104.52
    symmetry c1
}

set {
    BASIS         cc-pvdz
    REFERENCE     RHF
    SOSCF         True
    E_CONVERGENCE 8
    MAXITER       100
    MAX_ATTEMPTS  10
    GUESS         READ
}

ener = []
active = []

X = TCCSD(mol)

lower = [0,1,2,3,4]
upper = [5,6,7,8,9]

for x1 in lower:
    for x2 in lower:
        if x1 >= x2:
            continue
        for x3 in upper:
            for x4 in upper:
                if x3 >= x4:
                    continue
                active.append(str(x1) + ' ' + str(x2) + ' ' + str(x3) + ' ' + str(x4))
                print('Calculating ' + active[-1])
                X.TCCSD(active_space=[x1,x2,x3,x4])
                ener.append(X.Ecc)

for x,y in zip(active, ener):
    print_out('\n')
    print_out(x + ' {:<5.10f}'.format(y))
