# For compatibility issues

import os
import sys

file_dir = os.path.dirname('.')
sys.path.append(file_dir)

molecule mol {
    0 1
    O
    H 1 0.96
    H 1 0.96 2 104.5
}

set {
    BASIS         sto-3g
    E_CONVERGENCE 12
    SCF_TYPE      pk
    MAXITER       50
}

# Compute Psi4 HF

psiE = energy('scf')

basisname = psi4.core.get_global_option("BASIS")
basis = psi4.core.BasisSet.build(mol, target=str(basisname), key='basis')
mints = psi4.core.MintsHelper(basis) 

# call RHF code
from rhf import RHF
rhf = RHF(mol, mints)

psi4.core.print_out('Psi4 RHF Energy:  {:<5.10f}\n'.format(psiE))
