import os
import sys
import numpy as np
from HTCCSD import HTCCSD

molecule mol {
    0 1
    He
    H 1 1.0
    H 1 1.0 2 120.0
    symmetry c1
}

set {
    BASIS         3-21g
    REFERENCE     RHF
    SCF_TYPE      PK
    SOSCF         True
    E_CONVERGENCE 8
    MAXITER       100
    MAX_ATTEMPTS  10
    GUESS         READ
}

X = HTCCSD(mol)

X.HTCCSD('full')
